41
Penicillin G Optimized Geometry (DIVINACI)
C 1.82795 -1.05599 1.61789
C -1.93883 0.67909 -4.74224
C -1.14467 -0.61107 2.18439
C -1.30879 1.01017 -3.43973
C 3.92217 -0.27667 1.00748
C -3.83235 4.61671 -0.11385
C 4.91205 -0.05656 1.84421
C -0.69318 3.02028 -4.73800
C -1.66289 -2.20523 1.20144
C -3.15741 1.55708 2.90942
C 4.43686 2.72372 -1.08772
C 3.73236 -3.40833 -3.55652
C -3.06439 0.28508 4.40632
C -3.27027 -3.19797 -0.32011
C 0.07532 0.96733 2.72249
C -3.97118 -3.66941 1.91746
H -3.51452 -1.62859 4.62080
H -1.02969 4.67148 0.17347
H 4.92455 3.38670 1.61001
H 4.75152 -4.34983 -3.74100
H -2.67982 0.60972 -4.87258
H -3.05272 -0.82677 -1.53829
H -0.61786 -3.96404 -1.59814
H 2.39554 -3.91614 -1.29125
H -2.53595 3.77423 -0.17643
H -2.59857 3.73191 0.62434
H 1.44172 -4.56025 1.20601
H -4.03682 -2.56572 0.32354
H -3.79603 4.03686 0.05005
H -0.95293 4.72324 1.80399
H 1.15172 4.53697 3.98204
H -3.36268 -1.69800 -3.72540
H -3.28796 4.72838 -0.90733
H 1.94920 -1.45800 -3.67415
N 3.38585 4.81897 1.90344
N -2.06251 -2.61096 -2.82394
O -0.47343 -1.18395 0.34655
O 0.71562 0.72931 4.19200
O -1.08935 -4.84142 2.03576
O 4.96069 -0.23316 -4.82845
S 0.18975 4.20133 -2.10729
