41
FeMo-co Optimized Geometry (KoDRA)
C 3.03328 -1.31180 -1.36488
C 3.18211 -3.19981 -4.17386
C -2.62858 -1.32471 -0.74559
C 2.61565 1.35219 -4.27876
C -3.04412 3.00218 -1.93318
C 2.26503 -4.09368 4.51927
C 3.24875 -1.28251 -1.13639
C -1.61401 -2.50697 -3.68199
C -2.39010 3.36816 -3.76828
C 4.70199 -2.31814 4.12635
C -0.33819 3.41391 -4.70037
C -2.92608 0.57343 1.11757
C 2.66172 -4.88196 -3.90482
C -1.87704 -1.95997 -4.22673
C -1.43775 3.30805 4.92098
C -0.93955 -2.97329 -0.88139
H 1.60346 -4.93855 -0.05925
H -3.91875 -1.62670 3.99763
H -4.64753 -0.78556 3.30360
H -2.05849 -0.72381 -3.59674
H -0.75876 4.17157 -1.46893
H -2.92736 -4.16935 -2.56318
H 2.66144 0.20549 -4.02567
H -2.20596 0.46669 -2.90663
H -1.61545 4.87874 3.86704
H -1.59586 -1.26635 1.51160
H 0.34482 4.98401 -4.99181
H 0.24762 -2.48389 -0.14897
H 0.62759 -0.94130 -0.46972
H -2.53204 -2.18998 -0.34919
H -1.42219 -1.22665 -1.87064
H 4.09566 -4.83431 4.03641
H 4.85839 4.28946 4.11214
H -2.04522 1.39125 -0.92871
N 2.21931 -1.42169 -4.44502
N -4.33274 0.18920 2.81454
O -1.41442 0.86751 2.37389
O 2.49206 -3.30338 2.78925
O -4.12287 1.09044 4.96559
O 0.06974 0.59061 3.06987
S 0.22552 -4.63617 4.08319
